50
150
98
97
91
90
90
90
88
87
87
85
83
81
79
78
78
76
74
74
73
72
68
66
64
63
61
57
56
56
56
55
55
48
48
46
44
44
39
37
35
35
34
32
31
29
27
26
19
18
17
11
